
Gurobi 12.0.2 (win64) logging started Sun Nov  2 12:18:34 2025

Set parameter LogFile to value "resultados DATA_1_n10m05b2d1\instancia_10_log.txt"
Set parameter TimeLimit to value 1800
Gurobi Optimizer version 12.0.2 build v12.0.2rc0 (win64 - Windows 10.0 (19045.2))

CPU model: Intel(R) Core(TM) i5-6300U CPU @ 2.40GHz, instruction set [SSE2|AVX|AVX2]
Thread count: 2 physical cores, 4 logical processors, using up to 4 threads

Non-default parameters:
TimeLimit  1800

Optimize a model with 1005 rows, 3160 columns and 46880 nonzeros
Model fingerprint: 0x2627be78
Variable types: 0 continuous, 3160 integer (3160 binary)
Coefficient statistics:
  Matrix range     [1e+00, 1e+00]
  Objective range  [1e-03, 4e-02]
  Bounds range     [1e+00, 1e+00]
  RHS range        [1e+00, 8e+02]
Found heuristic solution: objective 1.0000000
Presolve time: 0.08s
Presolved: 1005 rows, 3160 columns, 46880 nonzeros
Variable types: 0 continuous, 3160 integer (3160 binary)

Root relaxation: cutoff, 6588 iterations, 0.84 seconds (0.81 work units)

    Nodes    |    Current Node    |     Objective Bounds      |     Work
 Expl Unexpl |  Obj  Depth IntInf | Incumbent    BestBd   Gap | It/Node Time

     0     0     cutoff    0         1.00000    1.00000  0.00%     -    0s

Explored 1 nodes (6588 simplex iterations) in 0.95 seconds (0.89 work units)
Thread count was 4 (of 4 available processors)

Solution count 1: 1 

Optimal solution found (tolerance 1.00e-04)
Best objective 1.000000000000e+00, best bound 1.000000000000e+00, gap 0.0000%
